[TITLE]
Tank-free variant for parallelism ownership benchmark

[JUNCTIONS]
J1 35 4.0 DAILY
J2 37 4.5 DAILY
J3 39 4.0 DAILY
J4 41 3.5 DAILY
J5 43 3.0 DAILY
J6 45 2.5 DAILY
H1 43 0

[RESERVOIRS]
R1 43

[PIPES]
P1 H1 J1 450 350 0.20 0 OPEN
P2 J1 J2 400 300 0.20 0 OPEN
P3 J2 J3 400 280 0.20 0 OPEN
P4 J3 J4 400 250 0.20 0 OPEN
P5 J4 J5 400 220 0.20 0 OPEN
P6 J5 J6 400 200 0.20 0 OPEN
P7 J1 J4 800 250 0.20 0 OPEN
P8 J2 J5 800 220 0.20 0 OPEN
P9 J3 J6 800 200 0.20 0 OPEN

[PUMPS]
PU1 R1 H1 HEAD C1 SPEED 0.9

[PATTERNS]
DAILY 0.68 0.62 0.58 0.56 0.58 0.70
DAILY 0.86 1.08 1.24 1.18 1.04 0.98
DAILY 1.00 1.02 1.08 1.22 1.34 1.18
DAILY 1.02 0.90 0.82 0.76 0.72 0.70

[CURVES]
C1 0 42
C1 28 35
C1 55 5

[OPTIONS]
UNITS LPS
HEADLOSS D-W
TRIALS 80
ACCURACY 0.001

[TIMES]
DURATION 24:00
HYDRAULIC TIMESTEP 1:00
PATTERN TIMESTEP 1:00
REPORT TIMESTEP 1:00

[END]
