[TITLE]
Pure-Rust synthetic single-zone scheduling network

[JUNCTIONS]
;ID Elevation Demand Pattern
J01 34 1.2 DAILY
J02 35 1.0 DAILY
J03 36 1.4 DAILY
J04 38 1.1 DAILY
J05 40 1.3 DAILY
J06 35 1.0 DAILY
J07 37 1.5 DAILY
J08 39 1.1 DAILY
J09 41 1.4 DAILY
J10 43 1.0 DAILY
J11 38 1.2 DAILY
J12 40 1.5 DAILY
J13 42 1.0 DAILY
J14 44 1.4 DAILY
J15 46 1.1 DAILY
J16 41 1.3 DAILY
J17 43 1.0 DAILY
J18 45 1.2 DAILY
J19 47 1.1 DAILY
J20 49 1.0 DAILY
VU 42 0
VD 44 0
H1 43 0

[RESERVOIRS]
R1 43

[TANKS]
;ID Elev Init Min Max Diameter MinVol
T1 64 6 1 10 24 0

[PIPES]
P01 H1 J01 450 350 0.20 0 OPEN
P02 J01 J02 380 300 0.20 0 OPEN
P03 J02 J03 420 280 0.20 0 OPEN
P04 J03 J04 360 280 0.20 0 OPEN
P05 J04 J05 410 250 0.20 0 OPEN
P06 J01 J06 390 300 0.20 0 OPEN
P07 J02 J07 410 280 0.20 0 OPEN
P08 J03 J08 360 280 0.20 0 OPEN
P09 J04 J09 430 250 0.20 0 OPEN
P10 J05 J10 390 250 0.20 0 OPEN
P11 J06 J07 350 280 0.20 0 OPEN
P12 J07 J08 380 280 0.20 0 OPEN
P13 J08 J09 400 250 0.20 0 OPEN
P14 J09 J10 420 250 0.20 0 OPEN
P15 J06 J11 370 280 0.20 0 OPEN
P16 J07 J12 390 250 0.20 0 OPEN
P17 J08 J13 410 250 0.20 0 OPEN
P18 J09 J14 390 220 0.20 0 OPEN
P19 J10 J15 430 220 0.20 0 OPEN
P20 J11 J12 350 250 0.20 0 OPEN
P21 J12 J13 380 250 0.20 0 OPEN
P22 J13 J14 400 220 0.20 0 OPEN
P23 J14 J15 420 220 0.20 0 OPEN
P24 J11 J16 390 250 0.20 0 OPEN
P25 J12 J17 410 220 0.20 0 OPEN
P26 J13 J18 380 220 0.20 0 OPEN
P27 J14 J19 410 200 0.20 0 OPEN
P28 J15 J20 440 200 0.20 0 OPEN
P29 J16 J17 360 220 0.20 0 OPEN
P30 J17 J18 390 220 0.20 0 OPEN
P31 J18 J19 410 200 0.20 0 OPEN
P32 J19 J20 430 200 0.20 0 OPEN
P33 T1 J08 300 350 0.20 0 OPEN
P34 J05 J09 520 220 0.20 0 OPEN
P35 J10 VU 240 250 0.20 0 OPEN
P36 VD J15 260 250 0.20 0 OPEN

[PUMPS]
PU1 R1 H1 HEAD C1 SPEED 1.0
PU2 R1 H1 HEAD C2 SPEED 1.0

[VALVES]
;ID Node1 Node2 Diameter Type Setting MinorLoss
PRV1 VU VD 250 PRV 32 0

[PATTERNS]
DAILY 0.68 0.62 0.58 0.56 0.58 0.70
DAILY 0.86 1.08 1.24 1.18 1.04 0.98
DAILY 1.00 1.02 1.08 1.22 1.34 1.18
DAILY 1.02 0.90 0.82 0.76 0.72 0.70

[CURVES]
C1 0 42
C1 28 35
C1 55 5
C2 0 38
C2 24 31
C2 48 4

[OPTIONS]
UNITS LPS
HEADLOSS D-W
VISCOSITY 1.0
TRIALS 80
ACCURACY 0.001
DEMAND MODEL DDA
MINIMUM PRESSURE 0
REQUIRED PRESSURE 20
PRESSURE EXPONENT 0.5

[TIMES]
DURATION 24:00
HYDRAULIC TIMESTEP 1:00
PATTERN TIMESTEP 1:00
REPORT TIMESTEP 1:00

[COORDINATES]
R1 -160 130
H1 -80 130
T1 290 250
J01 0 100
J02 100 100
J03 200 100
J04 300 100
J05 400 100
J06 0 0
J07 100 0
J08 200 0
J09 300 0
J10 400 0
J11 0 -100
J12 100 -100
J13 200 -100
J14 300 -100
J15 400 -100
J16 0 -200
J17 100 -200
J18 200 -200
J19 300 -200
J20 400 -200
VU 470 0
VD 510 -100

[END]
